94 166 239 276 362 451 467 563 584 683
0 531 451 16 122 362 315 344 200 252
166 520 276 262 437 530 344 251 769 793
213 262 607 362 642 467 743 720 379 851
16 77 332 105 857 201 71 486 793 470
71 747 185 379 0 657 94 570 166 484
262 607 531 201 46 831 793 769 683 372
785 840 642 411 170 736 288 696 498 315
831 660 22 650 263 785 77 166 88 569
863 669 0 401 520 98 200 411 187 22
